81
0 45 26 77 14 54 65 15 38 47 
60 37 40 39 76 80 61 63 23 46 
48 52 19 33 22 62 21 44 3 64 
79 16 34 78 8 17 58 68 74 72 
73 20 24 12 11 71 6 42 13 59 
35 36 1 50 2 10 28 29 41 57 
49 32 55 25 31 30 53 66 70 51 
56 43 4 5 27 9 18 69 67 7 
75 
